peakDumbCharging = 22200; 
Machine = anon_enum(16); 
machineSpeed = [3700,3700,3700,3700,3700,3700,3700,3700,3700,3700,3700,3700,3700,3700,3700,3700]; 
machineLoad = [3700,3700,3700,3700,3700,3700,3700,3700,3700,3700,3700,3700,3700,3700,3700,3700]; 
Car = anon_enum(17); 
demandCar = [3600,28280,4080,7080,2400,8840,12040,15160,8560,6640,23320,3360,25760,6120,10800,11160,11560]; 
arrivalCar = [72,70,68,68,67,66,66,64,62,59,56,56,54,54,50,44,42]; 
departureCar = [74,80,71,71,69,72,70,73,67,61,67,59,74,59,54,48,63]; 
